Ta4 S8
1.0
   6.7672546400000000    0.0000000000000000    0.0000000000000004
  -3.3836273199999991    5.8606144321181164    0.0000000000000004
   0.0000000000000000    0.0000000000000000   18.0624207513765782
Ta S
4 8
direct
   0.0000000000000000    0.0000000000000000    0.5000000000000000 Ta
   0.0000000000000000    0.5000000000000000    0.5000000000000000 Ta
   0.5000000000000000    0.0000000000000000    0.5000000000000000 Ta
   0.5000000000000000    0.5000000000000000    0.5000000000000000 Ta
   0.1666666666666667    0.3333333333333333    0.5547783100000000 S
   0.1666666666666667    0.8333333333333334    0.5547783100000000 S
   0.6666666666666667    0.3333333333333333    0.5547783100000000 S
   0.6666666666666666    0.8333333333333334    0.5547783100000000 S
   0.3333333333333334    0.1666666666666667    0.4452216900000002 S
   0.3333333333333334    0.6666666666666667    0.4452216900000002 S
   0.8333333333333335    0.1666666666666667    0.4452216900000002 S
   0.8333333333333334    0.6666666666666667    0.4452216900000000 S
