Nb4 S8
1.0
   6.7246189000000003    0.0000000000000000    0.0000000000000004
  -3.3623094499999993    5.8236907981689683    0.0000000000000004
   0.0000000000000000    0.0000000000000000   18.1408480552096805
Nb S
4 8
direct
   0.0000000000000000    0.0000000000000000    0.5000000000000000 Nb
   0.0000000000000000    0.5000000000000000    0.5000000000000000 Nb
   0.5000000000000000    0.0000000000000000    0.5000000000000000 Nb
   0.5000000000000000    0.5000000000000000    0.5000000000000000 Nb
   0.3333333333333333    0.1666666666666667    0.4529725700000000 S
   0.3333333333333334    0.6666666666666667    0.4529725700000000 S
   0.8333333333333334    0.1666666666666667    0.4529725700000000 S
   0.8333333333333334    0.6666666666666667    0.4529725700000000 S
   0.3333333333333334    0.1666666666666667    0.5470274300000000 S
   0.3333333333333334    0.6666666666666667    0.5470274300000000 S
   0.8333333333333334    0.1666666666666667    0.5470274300000000 S
   0.8333333333333334    0.6666666666666667    0.5470274300000000 S
