Ta4 Se8
1.0
   7.0133947799999996    0.0000000000000000    0.0000000000000004
  -3.5066973899999989    6.0737780462491742    0.0000000000000004
   0.0000000000000000    0.0000000000000000   18.2977564888320003
Ta Se
4 8
direct
   0.0000000000000000    0.0000000000000000    0.5000000000000000 Ta
   0.0000000000000000    0.5000000000000000    0.5000000000000000 Ta
   0.4999999999999999    0.0000000000000000    0.5000000000000000 Ta
   0.5000000000000000    0.5000000000000000    0.5000000000000000 Ta
   0.1666666666666666    0.3333333333333333    0.5614757600000000 Se
   0.1666666666666667    0.8333333333333334    0.5614757600000000 Se
   0.6666666666666665    0.3333333333333333    0.5614757600000000 Se
   0.6666666666666666    0.8333333333333334    0.5614757600000000 Se
   0.3333333333333333    0.1666666666666667    0.4385242400000000 Se
   0.3333333333333334    0.6666666666666667    0.4385242400000000 Se
   0.8333333333333334    0.1666666666666667    0.4385242400000000 Se
   0.8333333333333333    0.6666666666666667    0.4385242400000000 Se
