Mo4 S8
1.0
   6.3759262799999998    0.0000000000000000    0.0000000000000004
  -3.1879631399999990    5.5217141311368136    0.0000000000000004
   0.0000000000000000    0.0000000000000000   18.1332388284666486
Mo S
4 8
direct
   0.3333333333333333    0.1666666666666667    0.5000000000000001 Mo
   0.3333333333333333    0.6666666666666666    0.5000000000000001 Mo
   0.8333333333333331    0.1666666666666667    0.5000000000000001 Mo
   0.8333333333333331    0.6666666666666666    0.5000000000000001 Mo
   0.1666666666666667    0.3333333333333333    0.4550841699999999 S
   0.1666666666666667    0.8333333333333334    0.4550841699999999 S
   0.6666666666666666    0.3333333333333333    0.4550841699999999 S
   0.6666666666666666    0.8333333333333334    0.4550841699999999 S
   0.1666666666666666    0.3333333333333334    0.5449158300000001 S
   0.1666666666666666    0.8333333333333334    0.5449158300000001 S
   0.6666666666666666    0.3333333333333334    0.5449158300000001 S
   0.6666666666666666    0.8333333333333334    0.5449158300000001 S
