Nb4 Se8
1.0
   6.9733790800000000    0.0000000000000000    0.0000000000000004
  -3.4866895399999991    6.0391234334989576    0.0000000000000004
   0.0000000000000000    0.0000000000000000   18.3683746312169980
Nb Se
4 8
direct
   0.0000000000000000    0.0000000000000000    0.5000000000000000 Nb
   0.0000000000000000    0.5000000000000000    0.5000000000000000 Nb
   0.4999999999999999    0.0000000000000000    0.5000000000000000 Nb
   0.4999999999999999    0.5000000000000000    0.5000000000000000 Nb
   0.1666666666666666    0.3333333333333333    0.5498915000000000 Se
   0.1666666666666666    0.8333333333333334    0.5498915000000000 Se
   0.6666666666666665    0.3333333333333333    0.5498915000000000 Se
   0.6666666666666665    0.8333333333333334    0.5498915000000000 Se
   0.1666666666666667    0.3333333333333334    0.4501085000000000 Se
   0.1666666666666666    0.8333333333333334    0.4501085000000000 Se
   0.6666666666666666    0.3333333333333334    0.4501085000000000 Se
   0.6666666666666665    0.8333333333333334    0.4501085000000000 Se
