Mn Cr Mn Ni Mn Ni Cr Co Mn Fe Mn Cr Ni Cr Ni Mn Fe Mn Co Mn Ni Cr Ni Mn Ni Co Cr Ni Cr Ni Mn Cr Mn Ni Mn Co Ni Mn Ni Mn Cr Ni Mn Cr Mn Fe Cr Ni Cr Ni Cr Mn Ni Mn Cr Mn Cr Mn Ni Mn Cr Ni Cr Ni Mn Cr Co Ni Fe Co Ni Mn Ni Mn Cr Ni Mn Cr Ni Cr Ni Mn Cr Fe Cr Fe Ni Cr Ni
 1.0000000000000000
     0.0000000000000000    8.8750000000000000    8.8750000000000000
     8.8750000000000000    0.0000000000000000    8.8750000000000000
     8.8750000000000000    8.8750000000000000    0.0000000000000000
 Mn  Cr  Mn  Ni  Mn  Ni  Cr  Co  Mn  Fe  Mn  Cr  Ni  Cr  Ni  Mn  Fe  Mn  Co  Mn  Ni  Cr  Ni  Mn  Ni  Co  Cr  Ni  Cr  Ni  Mn  Cr  Mn  Ni  Mn  Co  Ni  Mn  Ni  Mn  Cr  Ni  Mn  Cr  Mn  Fe  Cr  Ni  Cr  Ni  Cr  Mn  Ni  Mn  Cr  Mn  Cr  Mn  Ni  Mn  Cr  Ni  Cr  Ni  Mn  Cr  Co  Ni  Fe  Co  Ni  Mn  Ni  Mn  Cr  Ni  Mn  Cr  Ni  Cr  Ni  Mn  Cr  Fe  Cr  Fe  Ni  Cr  Ni 
   1   1   2   1   3   1   1   1   1   1   1   1   1   1   1   1   1   1   1   3   1   1   2   3   1   1   1   2   1   1   1   1   2   1   2   1   1   1   3   4   2   2   1   2   1   1   2   2   1   1   1   1   4   1   1   2   1   1   3   1   1   1   1   1   1   1   1   1   1   1   2   3   1   3   1   2   1   1   2   1   1   3   1   1   1   1   1   1   1
Cartesian
  0.0000000000000000  0.0000000000000000  0.0000000000000000
  1.7750000000000001  1.7750000000000001  0.0000000000000000
  3.5500000000000003  3.5500000000000003  0.0000000000000000
  5.3250000000000011  5.3250000000000011  0.0000000000000000
  7.1000000000000005  7.1000000000000005  0.0000000000000000
  1.7750000000000001  0.0000000000000000  1.7750000000000001
  3.5500000000000003  1.7750000000000001  1.7750000000000006
  5.3250000000000002  3.5500000000000003  1.7750000000000008
  7.1000000000000005  5.3250000000000011  1.7749999999999997
  8.8750000000000000  7.1000000000000005  1.7749999999999997
  3.5500000000000003  0.0000000000000000  3.5500000000000003
  5.3250000000000002  1.7750000000000001  3.5499999999999998
  7.1000000000000005  3.5500000000000003  3.5500000000000012
  8.8750000000000018  5.3250000000000011  3.5500000000000007
 10.6500000000000004  7.1000000000000005  3.5500000000000016
  5.3250000000000011  0.0000000000000000  5.3250000000000011
  7.1000000000000014  1.7750000000000001  5.3250000000000002
  8.8750000000000018  3.5500000000000003  5.3250000000000002
 10.6500000000000021  5.3250000000000011  5.3250000000000011
 12.4250000000000007  7.1000000000000005  5.3250000000000011
  7.1000000000000005  0.0000000000000000  7.1000000000000005
  8.8750000000000000  1.7750000000000001  7.0999999999999996
 10.6500000000000004  3.5500000000000003  7.0999999999999996
 12.4250000000000007  5.3250000000000011  7.1000000000000014
 14.2000000000000011  7.1000000000000005  7.1000000000000023
  0.0000000000000000  1.7750000000000001  1.7750000000000001
  1.7750000000000001  3.5500000000000003  1.7750000000000006
  3.5500000000000003  5.3250000000000002  1.7750000000000008
  5.3250000000000011  7.1000000000000005  1.7749999999999997
  7.1000000000000005  8.8750000000000000  1.7749999999999997
  1.7750000000000001  1.7750000000000001  3.5500000000000003
  3.5500000000000003  3.5500000000000003  3.5500000000000003
  5.3250000000000002  5.3250000000000002  3.5500000000000007
  7.1000000000000005  7.1000000000000005  3.5499999999999994
  8.8750000000000000  8.8750000000000000  3.5500000000000007
  3.5500000000000003  1.7750000000000001  5.3250000000000002
  5.3250000000000002  3.5500000000000003  5.3250000000000002
  7.1000000000000005  5.3250000000000002  5.3250000000000002
  8.8750000000000018  7.1000000000000005  5.3250000000000002
 10.6500000000000004  8.8750000000000000  5.3250000000000011
  5.3250000000000011  1.7750000000000004  7.1000000000000005
  7.1000000000000023  3.5500000000000007  7.1000000000000005
  8.8750000000000018  5.3250000000000002  7.0999999999999996
 10.6500000000000021  7.1000000000000005  7.1000000000000005
 12.4250000000000007  8.8750000000000000  7.1000000000000014
  7.1000000000000005  1.7750000000000001  8.8750000000000000
  8.8750000000000000  3.5500000000000003  8.8750000000000000
 10.6500000000000004  5.3250000000000002  8.8749999999999982
 12.4250000000000007  7.1000000000000005  8.8749999999999982
 14.2000000000000011  8.8750000000000000  8.8749999999999982
  0.0000000000000000  3.5500000000000003  3.5500000000000003
  1.7750000000000001  5.3250000000000002  3.5499999999999998
  3.5500000000000003  7.1000000000000005  3.5500000000000012
  5.3250000000000011  8.8750000000000018  3.5500000000000007
  7.1000000000000005 10.6500000000000004  3.5500000000000016
  1.7750000000000001  3.5500000000000003  5.3250000000000002
  3.5500000000000003  5.3250000000000002  5.3250000000000002
  5.3250000000000002  7.1000000000000005  5.3250000000000002
  7.1000000000000005  8.8750000000000018  5.3250000000000002
  8.8750000000000000 10.6500000000000004  5.3250000000000011
  3.5500000000000003  3.5500000000000003  7.1000000000000005
  5.3250000000000002  5.3250000000000002  7.1000000000000005
  7.1000000000000005  7.1000000000000005  7.1000000000000005
  8.8750000000000018  8.8750000000000018  7.1000000000000014
 10.6500000000000004 10.6500000000000004  7.1000000000000014
  5.3250000000000011  3.5500000000000003  8.8750000000000018
  7.1000000000000014  5.3250000000000002  8.8750000000000018
  8.8750000000000018  7.1000000000000005  8.8750000000000018
 10.6500000000000021  8.8750000000000018  8.8750000000000000
 12.4250000000000007 10.6500000000000004  8.8750000000000000
  7.1000000000000005  3.5500000000000003 10.6500000000000004
  8.8750000000000000  5.3250000000000002 10.6500000000000004
 10.6500000000000004  7.1000000000000005 10.6500000000000004
 12.4250000000000007  8.8750000000000018 10.6499999999999986
 14.2000000000000011 10.6500000000000004 10.6500000000000004
  0.0000000000000000  5.3250000000000011  5.3250000000000011
  1.7750000000000001  7.1000000000000014  5.3250000000000011
  3.5500000000000003  8.8750000000000018  5.3250000000000011
  5.3250000000000011 10.6500000000000021  5.3250000000000011
  7.1000000000000005 12.4250000000000007  5.3250000000000011
  1.7750000000000001  5.3250000000000011  7.1000000000000014
  3.5500000000000003  7.1000000000000014  7.1000000000000005
  5.3250000000000002  8.8750000000000018  7.1000000000000005
  7.1000000000000005 10.6500000000000021  7.1000000000000005
  8.8750000000000000 12.4250000000000007  7.1000000000000014
  3.5500000000000003  5.3250000000000011  8.8750000000000018
  5.3250000000000002  7.1000000000000014  8.8750000000000018
  7.1000000000000005  8.8750000000000018  8.8750000000000018
  8.8750000000000018 10.6500000000000021  8.8750000000000000
 10.6500000000000004 12.4250000000000007  8.8750000000000000
  5.3250000000000011  5.3250000000000011 10.6500000000000021
  7.1000000000000014  7.1000000000000014 10.6500000000000021
  8.8750000000000018  8.8750000000000018 10.6500000000000021
 10.6500000000000021 10.6500000000000021 10.6500000000000021
 12.4250000000000007 12.4250000000000007 10.6500000000000021
  7.1000000000000005  5.3250000000000011 12.4250000000000007
  8.8750000000000000  7.1000000000000014 12.4250000000000007
 10.6500000000000004  8.8750000000000018 12.4250000000000007
 12.4250000000000007 10.6500000000000021 12.4250000000000007
 14.2000000000000011 12.4250000000000007 12.4250000000000025
  0.0000000000000000  7.1000000000000005  7.1000000000000005
  1.7750000000000001  8.8750000000000000  7.0999999999999996
  3.5500000000000003 10.6500000000000004  7.0999999999999996
  5.3250000000000011 12.4250000000000007  7.1000000000000014
  7.1000000000000005 14.2000000000000011  7.1000000000000023
  1.7750000000000001  7.1000000000000005  8.8750000000000000
  3.5500000000000003  8.8750000000000000  8.8750000000000000
  5.3250000000000002 10.6500000000000004  8.8750000000000000
  7.1000000000000005 12.4250000000000007  8.8750000000000000
  8.8750000000000000 14.2000000000000011  8.8749999999999982
  3.5500000000000003  7.1000000000000005 10.6500000000000004
  5.3250000000000002  8.8750000000000000 10.6500000000000004
  7.1000000000000005 10.6500000000000004 10.6500000000000004
  8.8750000000000018 12.4250000000000007 10.6499999999999986
 10.6500000000000004 14.2000000000000011 10.6500000000000004
  5.3250000000000011  7.1000000000000005 12.4250000000000007
  7.1000000000000014  8.8750000000000000 12.4250000000000007
  8.8750000000000018 10.6500000000000004 12.4250000000000007
 10.6500000000000021 12.4250000000000007 12.4250000000000007
 12.4250000000000007 14.2000000000000011 12.4250000000000025
  7.1000000000000005  7.1000000000000005 14.2000000000000011
  8.8750000000000000  8.8750000000000000 14.2000000000000011
 10.6500000000000004 10.6500000000000004 14.2000000000000011
 12.4250000000000007 12.4250000000000007 14.1999999999999993
 14.2000000000000011 14.2000000000000011 14.2000000000000011
